solution status: optimal solution found
objective value:                     202343.853443175
d11(0,0)                                            1 	(obj:0)
d11(1,1)                                            1 	(obj:0)
d11(2,3)                                            1 	(obj:0)
d11(2,5)                                            1 	(obj:0)
d11(3,7)                                            1 	(obj:0)
d11(3,8)                                            1 	(obj:0)
d11(3,9)                                            1 	(obj:0)
d11(3,10)                                           1 	(obj:0)
d11(3,11)                                           1 	(obj:0)
d11(3,12)                                           1 	(obj:0)
d11(3,13)                                           1 	(obj:0)
d11(3,14)                                           1 	(obj:0)
d11(5,31)                                           1 	(obj:0)
d11(5,33)                                           1 	(obj:0)
d11(5,34)                                           1 	(obj:0)
d11(5,35)                                           1 	(obj:0)
d11(5,36)                                           1 	(obj:0)
d11(5,37)                                           1 	(obj:0)
d11(5,38)                                           1 	(obj:0)
d11(5,39)                                           1 	(obj:0)
d11(5,40)                                           1 	(obj:0)
d11(5,41)                                           1 	(obj:0)
d11(5,42)                                           1 	(obj:0)
d11(5,43)                                           1 	(obj:0)
d11(5,44)                                           1 	(obj:0)
d11(5,45)                                           1 	(obj:0)
d11(5,46)                                           1 	(obj:0)
d11(5,47)                                           1 	(obj:0)
d11(5,48)                                           1 	(obj:0)
d11(5,49)                                           1 	(obj:0)
d11(5,51)                                           1 	(obj:0)
d11(5,52)                                           1 	(obj:0)
d11(5,53)                                           1 	(obj:0)
d11(5,54)                                           1 	(obj:0)
d11(5,55)                                           1 	(obj:0)
d11(5,56)                                           1 	(obj:0)
d11(5,57)                                           1 	(obj:0)
d11(5,58)                                           1 	(obj:0)
d11(5,59)                                           1 	(obj:0)
d11(5,60)                                           1 	(obj:0)
d11(5,61)                                           1 	(obj:0)
d11(5,62)                                           1 	(obj:0)
d11(6,63)                                           1 	(obj:0)
d11(6,64)                                           1 	(obj:0)
d11(6,65)                                           1 	(obj:0)
d11(6,66)                                           1 	(obj:0)
d11(6,67)                                           1 	(obj:0)
d11(6,68)                                           1 	(obj:0)
d11(6,69)                                           1 	(obj:0)
d11(6,70)                                           1 	(obj:0)
d11(6,71)                                           1 	(obj:0)
d11(6,72)                                           1 	(obj:0)
d11(6,73)                                           1 	(obj:0)
d11(6,74)                                           1 	(obj:0)
d11(6,75)                                           1 	(obj:0)
d11(6,76)                                           1 	(obj:0)
d11(6,77)                                           1 	(obj:0)
d11(6,78)                                           1 	(obj:0)
d11(6,79)                                           1 	(obj:0)
d11(6,80)                                           1 	(obj:0)
d11(6,81)                                           1 	(obj:0)
d11(6,82)                                           1 	(obj:0)
d11(6,83)                                           1 	(obj:0)
d11(6,84)                                           1 	(obj:0)
d11(6,85)                                           1 	(obj:0)
d11(6,86)                                           1 	(obj:0)
d11(6,87)                                           1 	(obj:0)
d11(6,88)                                           1 	(obj:0)
d11(6,89)                                           1 	(obj:0)
d11(6,90)                                           1 	(obj:0)
d11(6,91)                                           1 	(obj:0)
d11(6,92)                                           1 	(obj:0)
d11(6,93)                                           1 	(obj:0)
d11(6,94)                                           1 	(obj:0)
d11(6,95)                                           1 	(obj:0)
d11(6,96)                                           1 	(obj:0)
d11(6,97)                                           1 	(obj:0)
d11(6,98)                                           1 	(obj:0)
d11(6,99)                                           1 	(obj:0)
d11(6,100)                                          1 	(obj:0)
d11(6,101)                                          1 	(obj:0)
d11(6,102)                                          1 	(obj:0)
d11(6,103)                                          1 	(obj:0)
d11(6,104)                                          1 	(obj:0)
d11(6,105)                                          1 	(obj:0)
d11(6,106)                                          1 	(obj:0)
d11(6,107)                                          1 	(obj:0)
d11(6,108)                                          1 	(obj:0)
d11(6,109)                                          1 	(obj:0)
d11(6,110)                                          1 	(obj:0)
d11(6,111)                                          1 	(obj:0)
d11(6,112)                                          1 	(obj:0)
d11(6,113)                                          1 	(obj:0)
d11(6,114)                                          1 	(obj:0)
d11(6,115)                                          1 	(obj:0)
d11(6,116)                                          1 	(obj:0)
d11(6,117)                                          1 	(obj:0)
d11(6,118)                                          1 	(obj:0)
d11(6,119)                                          1 	(obj:0)
d11(6,120)                                          1 	(obj:0)
d11(6,121)                                          1 	(obj:0)
d11(6,122)                                          1 	(obj:0)
d11(6,123)                                          1 	(obj:0)
d11(6,124)                                          1 	(obj:0)
d11(6,125)                                          1 	(obj:0)
d11(6,126)                                          1 	(obj:0)
d12(2,4)                                            1 	(obj:0)
d12(2,6)                                            1 	(obj:0)
d12(4,15)                                           1 	(obj:0)
d12(4,16)                                           1 	(obj:0)
d12(4,17)                                           1 	(obj:0)
d12(4,18)                                           1 	(obj:0)
d12(4,19)                                           1 	(obj:0)
d12(4,20)                                           1 	(obj:0)
d12(4,21)                                           1 	(obj:0)
d12(4,22)                                           1 	(obj:0)
d12(4,23)                                           1 	(obj:0)
d12(4,24)                                           1 	(obj:0)
d12(4,25)                                           1 	(obj:0)
d12(4,26)                                           1 	(obj:0)
d12(4,27)                                           1 	(obj:0)
d12(4,28)                                           1 	(obj:0)
d12(4,29)                                           1 	(obj:0)
d12(4,30)                                           1 	(obj:0)
d21(3,7)                                            1 	(obj:0)
d21(5,31)                                           1 	(obj:0)
d21(5,33)                                           1 	(obj:0)
d21(5,39)                                           1 	(obj:0)
d21(5,47)                                           1 	(obj:0)
d21(6,63)                                           1 	(obj:0)
d21(6,64)                                           1 	(obj:0)
d21(6,65)                                           1 	(obj:0)
d21(6,66)                                           1 	(obj:0)
d21(6,67)                                           1 	(obj:0)
d21(6,68)                                           1 	(obj:0)
d21(6,69)                                           1 	(obj:0)
d21(6,71)                                           1 	(obj:0)
d21(6,72)                                           1 	(obj:0)
d21(6,73)                                           1 	(obj:0)
d21(6,75)                                           1 	(obj:0)
d21(6,79)                                           1 	(obj:0)
d21(6,80)                                           1 	(obj:0)
d21(6,81)                                           1 	(obj:0)
d21(6,82)                                           1 	(obj:0)
d21(6,83)                                           1 	(obj:0)
d21(6,84)                                           1 	(obj:0)
d21(6,85)                                           1 	(obj:0)
d21(6,87)                                           1 	(obj:0)
d21(6,88)                                           1 	(obj:0)
d21(6,89)                                           1 	(obj:0)
d21(6,91)                                           1 	(obj:0)
d21(6,95)                                           1 	(obj:0)
d21(6,96)                                           1 	(obj:0)
d21(6,97)                                           1 	(obj:0)
d21(6,99)                                           1 	(obj:0)
d21(6,100)                                          1 	(obj:0)
d21(6,103)                                          1 	(obj:0)
d21(6,107)                                          1 	(obj:0)
d21(6,111)                                          1 	(obj:0)
d21(6,112)                                          1 	(obj:0)
d21(6,113)                                          1 	(obj:0)
d21(6,115)                                          1 	(obj:0)
d21(6,119)                                          1 	(obj:0)
STE(1,1)                              8484.7501011112 	(obj:0)
STE(0,0)                                        11025 	(obj:0)
STE(1,2)                                        10143 	(obj:0)
STE(2,3)                             7602.75010111037 	(obj:0)
STE(2,4)                             8918.96418698693 	(obj:0)
STE(2,5)                             9260.99999999917 	(obj:0)
STE(2,6)                             10577.2140858757 	(obj:0)
STE(3,7)                             5062.50020222255 	(obj:0)
STE(3,8)                             6720.75010111136 	(obj:0)
STE(3,9)                             6378.71428809911 	(obj:0)
STE(3,10)                            8036.96418698798 	(obj:0)
STE(3,11)                            6720.75010111135 	(obj:0)
STE(3,12)                            8379.00000000017 	(obj:0)
STE(3,13)                            8036.96418698791 	(obj:0)
STE(3,14)                            9695.21408587682 	(obj:0)
STE(4,15)                                      6394.5 	(obj:0)
STE(4,16)                            7812.30366354994 	(obj:0)
STE(4,17)                            8052.74989888882 	(obj:0)
STE(4,18)                            9470.55356243876 	(obj:0)
STE(4,19)                            7710.71408587656 	(obj:0)
STE(4,20)                             9128.5177494265 	(obj:0)
STE(4,21)                            9368.96398476543 	(obj:0)
STE(4,22)                            10786.7676483154 	(obj:0)
STE(4,23)                             8052.7498988888 	(obj:0)
STE(4,24)                            9470.55356243874 	(obj:0)
STE(4,25)                            9710.99979777762 	(obj:0)
STE(4,26)                            11128.8034613276 	(obj:0)
STE(4,27)                            9368.96398476536 	(obj:0)
STE(4,28)                            10786.7676483153 	(obj:0)
STE(4,29)                            11027.2138836543 	(obj:0)
STE(4,30)                            12445.0175472042 	(obj:0)
STE(5,31)                            3854.25010111113 	(obj:0)
STE(5,32)                                      5512.5 	(obj:0)
STE(5,33)                            5272.05376466107 	(obj:0)
STE(5,34)                            6930.30366354989 	(obj:0)
STE(5,35)                            5512.49999999995 	(obj:0)
STE(5,36)                            7170.74989888882 	(obj:0)
STE(5,37)                            6930.30366354989 	(obj:0)
STE(5,38)                             8588.5535624387 	(obj:0)
STE(5,39)                            5170.46418698769 	(obj:0)
STE(5,40)                            6828.71408587656 	(obj:0)
STE(5,41)                            6588.26785053763 	(obj:0)
STE(5,42)                             8246.5177494265 	(obj:0)
STE(5,43)                            6828.71408587656 	(obj:0)
STE(5,44)                            8486.96398476543 	(obj:0)
STE(5,45)                             8246.5177494265 	(obj:0)
STE(5,46)                            9904.76764831543 	(obj:0)
STE(5,47)                            5512.49999999993 	(obj:0)
STE(5,48)                             7170.7498988888 	(obj:0)
STE(5,49)                            6930.30366354987 	(obj:0)
STE(5,50)                            8588.55356243874 	(obj:0)
STE(5,51)                            7170.74989888875 	(obj:0)
STE(5,52)                            8828.99979777762 	(obj:0)
STE(5,53)                            8588.55356243869 	(obj:0)
STE(5,54)                            10246.8034613275 	(obj:0)
STE(5,55)                            6828.71408587649 	(obj:0)
STE(5,56)                            8486.96398476536 	(obj:0)
STE(5,57)                            8246.51774942643 	(obj:0)
STE(5,58)                             9904.7676483153 	(obj:0)
STE(5,59)                             8486.9639847654 	(obj:0)
STE(5,60)                            10145.2138836543 	(obj:0)
STE(5,61)                            9904.76764831534 	(obj:0)
STE(5,62)                            11563.0175472042 	(obj:0)
STE(6,63)                            778.196538672387 	(obj:0)
STE(6,64)                             2436.4464375612 	(obj:0)
STE(6,65)                            2436.44643756126 	(obj:0)
STE(6,66)                            4094.69633645008 	(obj:0)
STE(6,67)                            2196.00020222233 	(obj:0)
STE(6,68)                            3854.25010111114 	(obj:0)
STE(6,69)                            3854.25010111115 	(obj:0)
STE(6,70)                                      5512.5 	(obj:0)
STE(6,71)                             2436.4464375612 	(obj:0)
STE(6,72)                            4094.69633645002 	(obj:0)
STE(6,73)                            4094.69633645008 	(obj:0)
STE(6,74)                            5752.94623533889 	(obj:0)
STE(6,75)                            3854.25010111114 	(obj:0)
STE(6,76)                            5512.49999999996 	(obj:0)
STE(6,77)                            5512.49999999996 	(obj:0)
STE(6,78)                            7170.74989888878 	(obj:0)
STE(6,79)                            2094.41062454895 	(obj:0)
STE(6,80)                            3752.66052343777 	(obj:0)
STE(6,81)                            3752.66052343782 	(obj:0)
STE(6,82)                            5410.91042232664 	(obj:0)
STE(6,83)                            3512.21428809889 	(obj:0)
STE(6,84)                            5170.46418698771 	(obj:0)
STE(6,85)                            5170.46418698776 	(obj:0)
STE(6,86)                            6828.71408587658 	(obj:0)
STE(6,87)                            3752.66052343782 	(obj:0)
STE(6,88)                            5410.91042232665 	(obj:0)
STE(6,89)                            5410.91042232669 	(obj:0)
STE(6,90)                            7069.16032121551 	(obj:0)
STE(6,91)                            5170.46418698776 	(obj:0)
STE(6,92)                            6828.71408587657 	(obj:0)
STE(6,93)                            6828.71408587669 	(obj:0)
STE(6,94)                            8486.96398476551 	(obj:0)
STE(6,95)                            2436.44643756119 	(obj:0)
STE(6,96)                            4094.69633645001 	(obj:0)
STE(6,97)                            4094.69633645006 	(obj:0)
STE(6,98)                            5752.94623533888 	(obj:0)
STE(6,99)                            3854.25010111113 	(obj:0)
STE(6,100)                           5512.49999999995 	(obj:0)
STE(6,101)                                     5512.5 	(obj:0)
STE(6,102)                           7170.74989888882 	(obj:0)
STE(6,103)                           4094.69633645001 	(obj:0)
STE(6,104)                           5752.94623533883 	(obj:0)
STE(6,105)                           5752.94623533888 	(obj:0)
STE(6,106)                            7411.1961342277 	(obj:0)
STE(6,107)                           5512.49999999995 	(obj:0)
STE(6,108)                           7170.74989888876 	(obj:0)
STE(6,109)                           7170.74989888877 	(obj:0)
STE(6,110)                           8828.99979777758 	(obj:0)
STE(6,111)                           3752.66052343775 	(obj:0)
STE(6,112)                           5410.91042232657 	(obj:0)
STE(6,113)                           5410.91042232662 	(obj:0)
STE(6,114)                           7069.16032121544 	(obj:0)
STE(6,115)                           5170.46418698769 	(obj:0)
STE(6,116)                           6828.71408587651 	(obj:0)
STE(6,117)                           6828.71408587656 	(obj:0)
STE(6,118)                           8486.96398476538 	(obj:0)
STE(6,119)                           5410.91042232666 	(obj:0)
STE(6,120)                           7069.16032121548 	(obj:0)
STE(6,121)                           7069.16032121553 	(obj:0)
STE(6,122)                           8727.41022010435 	(obj:0)
STE(6,123)                            6828.7140858766 	(obj:0)
STE(6,124)                           8486.96398476542 	(obj:0)
STE(6,125)                           8486.96398476547 	(obj:0)
STE(6,126)                           10145.2138836543 	(obj:0)
y1(6,98)                             482.223297194932 	(obj:0)
y1(6,99)                             1974.64820619487 	(obj:0)
y1(6,100)                            482.223297194932 	(obj:0)
y1(6,101)                            1974.64820619487 	(obj:0)
y1(6,102)                            482.223297194932 	(obj:0)
y1(6,103)                            1974.64820619487 	(obj:0)
y1(6,104)                            482.223297194932 	(obj:0)
y1(6,105)                            1974.64820619487 	(obj:0)
y1(6,106)                            482.223297194932 	(obj:0)
y1(6,107)                            1974.64820619487 	(obj:0)
y1(6,108)                            482.223297194932 	(obj:0)
y1(6,109)                            1974.64820619487 	(obj:0)
y1(6,110)                            482.223297194932 	(obj:0)
y1(6,111)                            1974.64820619487 	(obj:0)
y1(6,112)                            482.223297194932 	(obj:0)
y1(6,113)                            1974.64820619487 	(obj:0)
y1(6,114)                            482.223297194932 	(obj:0)
y1(6,115)                            1974.64820619487 	(obj:0)
y1(6,116)                            482.223297194932 	(obj:0)
y1(6,117)                            1974.64820619487 	(obj:0)
y1(6,118)                            482.223297194932 	(obj:0)
y1(6,119)                            1974.64820619487 	(obj:0)
y1(6,120)                            482.223297194932 	(obj:0)
y1(6,121)                            1974.64820619487 	(obj:0)
y1(6,122)                            482.223297194932 	(obj:0)
y1(6,123)                            1974.64820619487 	(obj:0)
y1(6,124)                            482.223297194932 	(obj:0)
y1(6,125)                            1974.64820619487 	(obj:0)
y1(6,126)                            482.223297194932 	(obj:0)
BG(5)                                723.522421037851 	(obj:10)
BG(6)                                1641.99519288722 	(obj:10)
AVE(1)                               3259.55177567504 	(obj:0)
WB(2)                                3259.55588804169 	(obj:0)
AVE(2)                               3259.55588804169 	(obj:0)
AVE(3)                               3579.36165209166 	(obj:0)
WB(4)                                3295.62494379517 	(obj:0)
AVE(4)                               3579.36576445831 	(obj:0)
AVE(5)                               3472.77007794174 	(obj:0)
AVE(6)                                3046.3618950668 	(obj:0)
WG(1)                                3259.55177567504 	(obj:10)
WG(3)                                3579.36165209166 	(obj:10)
WG(4)                                283.740820663139 	(obj:10)
WG(5)                                3472.77007794174 	(obj:10)
WG(6)                                 3046.3618950668 	(obj:10)
BG(1)                                936.740723304552 	(obj:10)
BG(2)                                2673.40993877631 	(obj:10)
BG(3)                                616.930846886971 	(obj:10)
y1(1,1)                              1492.42490899992 	(obj:0)
y1(3,7)                              1492.42490899904 	(obj:0)
y1(3,9)                              1492.42490899904 	(obj:0)
y1(3,11)                             1492.42490899904 	(obj:0)
y1(3,13)                             1492.42490899904 	(obj:0)
y1(5,31)                             1492.42490899998 	(obj:0)
y1(5,33)                             1492.42490899998 	(obj:0)
y1(5,35)                             1492.42490899998 	(obj:0)
y1(5,37)                             1492.42490899998 	(obj:0)
y1(5,39)                             1492.42490899998 	(obj:0)
y1(5,41)                             1492.42490899998 	(obj:0)
y1(5,43)                             1492.42490899998 	(obj:0)
y1(5,45)                             1492.42490899998 	(obj:0)
y1(5,47)                             1492.42490899998 	(obj:0)
y1(5,49)                             1492.42490899998 	(obj:0)
y1(5,51)                             1492.42490899998 	(obj:0)
y1(5,53)                             1492.42490899998 	(obj:0)
y1(5,55)                             1492.42490899998 	(obj:0)
y1(5,57)                             1492.42490899998 	(obj:0)
y1(5,59)                             1492.42490899998 	(obj:0)
y1(5,61)                             1492.42490899998 	(obj:0)
y1(6,63)                             1974.64820619487 	(obj:0)
y1(6,64)                             482.223297194932 	(obj:0)
y1(6,65)                             1974.64820619487 	(obj:0)
y1(6,66)                             482.223297194932 	(obj:0)
y1(6,67)                             1974.64820619487 	(obj:0)
y1(6,68)                             482.223297194932 	(obj:0)
y1(6,69)                             1974.64820619487 	(obj:0)
y1(6,70)                             482.223297194898 	(obj:0)
y1(6,71)                             1974.64820619487 	(obj:0)
y1(6,72)                             482.223297194932 	(obj:0)
y1(6,73)                             1974.64820619487 	(obj:0)
y1(6,74)                             482.223297194932 	(obj:0)
y1(6,75)                             1974.64820619487 	(obj:0)
y1(6,76)                             482.223297194932 	(obj:0)
y1(6,77)                             1974.64820619487 	(obj:0)
y1(6,78)                             482.223297194932 	(obj:0)
y1(6,79)                             1974.64820619487 	(obj:0)
y1(6,80)                             482.223297194932 	(obj:0)
y1(6,81)                             1974.64820619487 	(obj:0)
y1(6,82)                             482.223297194932 	(obj:0)
y1(6,83)                             1974.64820619487 	(obj:0)
y1(6,84)                             482.223297194932 	(obj:0)
y1(6,85)                             1974.64820619487 	(obj:0)
y1(6,86)                             482.223297194932 	(obj:0)
y1(6,87)                             1974.64820619487 	(obj:0)
y1(6,88)                             482.223297194927 	(obj:0)
y1(6,89)                             1974.64820619487 	(obj:0)
y1(6,90)                             482.223297194932 	(obj:0)
y1(6,91)                             1974.64820619487 	(obj:0)
y1(6,92)                             482.223297194932 	(obj:0)
y1(6,93)                             1974.64820619487 	(obj:0)
y1(6,94)                             482.223297194932 	(obj:0)
y1(6,95)                             1974.64820619487 	(obj:0)
y1(6,96)                             482.223297194932 	(obj:0)
y1(6,97)                             1974.64820619487 	(obj:0)
y2(2,4)                              1385.48851144814 	(obj:0)
y2(2,6)                              1385.48851144814 	(obj:0)
y2(4,15)                             2330.52610292364 	(obj:0)
y2(4,16)                             3822.95101192357 	(obj:0)
y2(4,17)                             2330.52610292364 	(obj:0)
y2(4,18)                             3822.95101192357 	(obj:0)
y2(4,19)                             2330.52610292364 	(obj:0)
y2(4,20)                             3822.95101192357 	(obj:0)
y2(4,21)                             2330.52610292364 	(obj:0)
y2(4,22)                             3822.95101192357 	(obj:0)
y2(4,23)                             2330.52610292364 	(obj:0)
y2(4,24)                             3822.95101192357 	(obj:0)
y2(4,25)                             2330.52610292364 	(obj:0)
y2(4,26)                             3822.95101192357 	(obj:0)
y2(4,27)                             2330.52610292364 	(obj:0)
y2(4,28)                             3822.95101192357 	(obj:0)
y2(4,29)                             2330.52610292364 	(obj:0)
y2(4,30)                             3822.95101192357 	(obj:0)
